\ LP format - for model browsing. Use MPS format to capture full model detail.
Maximize
  41.76 z1 + 18.72 z2 + 37.4 z3 + 11.52 z4 + 23.04 z5 + 23 z6 + 19 z7
   + 10.08 z8 + 15.84 z9 + 30.24 z10 + 9.8 z11 + 46 z12 + 18.72 z13
   + 28.8 z14 + 41 z15 + 36.72 z16 + 36 z17 + 41 z18 + 44.64 z19 + 36 z20
Subject To
 constraint1: 47 z1 + 24 z2 + 41 z3 + 14 z4 + 26 z5 + 23 z6 + 19 z7 + 11 z8
   + 18 z9 + 33 z10 + 13 z11 + 46 z12 + 20 z13 + 32 z14 + 41 z15 + 39 z16
   + 36 z17 + 41 z18 + 48 z19 + 40 z20 <= 200
 constraints2_3_&_18: z3 - z18 = 0
 constraints2_18_&_20: z18 - z20 = 0
 constraints2_6_&_15: z6 - z15 = 0
 constraints2_7_&_11: z7 - z11 = 0
 constraints2_12_&_16: z12 - z16 = 0
 constraints3_2_|_13: z2 + z13 <= 1
 constraints3_3_|_6: z3 + z6 <= 1
 constraints3_3_|_12: z3 + z12 <= 1
 constraints3_6_|_12: z6 + z12 <= 1
 constraints3_6_|_13: z6 + z13 <= 1
 constraints3_6_|_17: z6 + z17 <= 1
 constraints3_7_|_9: z7 + z9 <= 1
 constraints3_9_|_11: z9 + z11 <= 1
 constraints3_9_|_14: z9 + z14 <= 1
 constraints3_10_|_19: z10 + z19 <= 1
 constraints3_12_|_15: z12 + z15 <= 1
 constraints3_12_|_17: z12 + z17 <= 1
 constraints3_12_|_18: z12 + z18 <= 1
 constraints3_13_|_15: z13 + z15 <= 1
 constraints3_13_|_19: z13 + z19 <= 1
Bounds
Binaries
 z1 z2 z3 z4 z5 z6 z7 z8 z9 z10 z11 z12 z13 z14 z15 z16 z17 z18 z19 z20
End
